\ENCODING=ISO-8859-1
\Problem name: 

Minimize
 obj: x1 + x2 + x3 + x4 + x5 + x6 + x7 + x8 + x9 + x10 + x11 + x12 + x13 + x14
      + x15 + x16 + x17 + x18 + x19 + x20 + x21 + x22 + 2 x23 + 2 x24 + 2 x25
      + 2 x26 + 2 x27 + 2 x28 + 2 x29 + 2 x30 + 2 x31 + 2 x32 + 2 x33 + 2 x34
      + 2 x35 + 2 x36 + 2 x37 + 2 x38 + 2 x39 + 2 x40 + 2 x41 + 2 x42 + 2 x43
      + 2 x44 + 2 x45 + 2 x46 + 2 x47 + 2 x48 + 2 x49 + 2 x50 + 2 x51 + 2 x52
      + 2 x53 + 2 x54 + 2 x55 + 2 x56 + 3 x57 + 3 x58 + 3 x59 + 3 x60 + 3 x61
      + 3 x62 + 3 x63 + 3 x64 + 3 x65 + 3 x66 + 3 x67 + 3 x68 + 3 x69 + 3 x70
      + 3 x71 + 3 x72 + 3 x73 + 3 x74 + 3 x75 + 3 x76 + 3 x77 + 3 x78 + 3 x79
      + 3 x80 + 3 x81 + 3 x82 + 3 x83 + 3 x84 + 3 x85 + 3 x86 + 4 x87 + 4 x88
      + 4 x89 + 4 x90 + 4 x91 + 4 x92 + 4 x93 + 4 x94 + 4 x95 + 4 x96 + 4 x97
      + 4 x98 + 4 x99 + 4 x100 + 4 x101 + 4 x102 + 4 x103 + 4 x104 + 4 x105
      + 4 x106 + 4 x107 + 4 x108 + 4 x109 + 4 x110 + 5 x111 + 5 x112 + 5 x113
      + 5 x114 + 5 x115 + 5 x116 + 5 x117 + 5 x118 + 5 x119 + 5 x120 + 5 x121
      + 5 x122 + 5 x123 + 5 x124 + 5 x125 + 5 x126 + 5 x127 + 5 x128 + 5 x129
      + 5 x130 + 5 x131 + 5 x132 + 5 x133 + 6 x134 + 6 x135 + 6 x136 + 6 x137
      + 6 x138 + 6 x139 + 6 x140 + 6 x141 + 6 x142 + 6 x143 + 6 x144 + 6 x145
      + 6 x146 + 6 x147 + 6 x148 + 6 x149 + 6 x150 + 6 x151 + 6 x152 + 6 x153
      + 6 x154 + 6 x155 + 6 x156 + 6 x157 + 6 x158 + 7 x159 + 7 x160 + 7 x161
      + 7 x162 + 7 x163 + 7 x164 + 7 x165 + 7 x166 + 7 x167 + 7 x168 + 7 x169
      + 7 x170 + 7 x171 + 7 x172 + 7 x173 + 7 x174 + 7 x175 + 7 x176 + 7 x177
      + 7 x178 + 7 x179 + 7 x180 + 7 x181 + 7 x182 + 7 x183 + 7 x184 + 7 x185
      + 7 x186 + 7 x187 + 7 x188 + 7 x189 + 8 x190 + 8 x191 + 8 x192 + 8 x193
      + 8 x194 + 8 x195 + 8 x196 + 8 x197 + 8 x198 + 8 x199 + 8 x200 + 8 x201
      + 8 x202 + 8 x203 + 8 x204 + 8 x205 + 8 x206 + 9 x207 + 9 x208 + 9 x209
      + 9 x210 + 9 x211 + 9 x212 + 9 x213 + 9 x214 + 9 x215 + 9 x216 + 9 x217
      + 9 x218 + 9 x219 + 9 x220 + 9 x221 + 9 x222 + 9 x223 + 9 x224 + 9 x225
      + 9 x226 + 9 x227 + 9 x228 + 9 x229 + 9 x230 + 9 x231 + 9 x232 + 9 x233
      + 9 x234 + 10 x235 + 10 x236 + 10 x237 + 10 x238 + 10 x239 + 10 x240
      + 10 x241 + 10 x242 + 10 x243 + 10 x244 + 10 x245 + 10 x246 + 10 x247
      + 10 x248 + 10 x249 + 10 x250 + 10 x251 + 10 x252 + 10 x253 + 10 x254
      + 10 x255 + 10 x256 + 11 x257 + 11 x258 + 11 x259 + 11 x260 + 11 x261
      + 11 x262 + 11 x263 + 11 x264 + 11 x265 + 11 x266 + 11 x267 + 11 x268
      + 11 x269 + 11 x270 + 11 x271 + 12 x272 + 12 x273 + 12 x274 + 12 x275
      + 12 x276 + 12 x277 + 12 x278 + 13 x279 + 13 x280 + 13 x281 + 13 x282
      + 13 x283 + 13 x284 + 13 x285 + 13 x286 + 13 x287 + 13 x288 + 13 x289
      + 13 x290 + 13 x291 + 13 x292 + 13 x293 + 13 x294 + 13 x295 + 13 x296
      + 14 x297 + 14 x298 + 14 x299 + 14 x300 + 14 x301 + 14 x302 + 14 x303
      + 14 x304 + 15 x305 + 15 x306 + 15 x307 + 15 x308 + 15 x309 + 15 x310
      + 15 x311 + 15 x312 + 16 x313 + 16 x314 + 16 x315 + 16 x316 + 16 x317
      + 16 x318 + 16 x319 + 16 x320 + 17 x321 + 17 x322 + 17 x323 + 17 x324
      + 17 x325 + 17 x326 + 17 x327 + 17 x328 + 17 x329 + 17 x330 + 18 x331
      + 18 x332 + 18 x333 + 18 x334 + 18 x335 + 18 x336 + 18 x337 + 19 x338
      + 19 x339 + 19 x340 + 19 x341 + 21 x342 + 21 x343 + 21 x344 + 22 x345
      + 22 x346 + 23 x347 + 24 x348 + 24 x349 + 24 x350 + 27 x351 + 27 x352
Subject To
 c1:   x62 + x75 + x101 + x192 + x194 + x225 + x252 + x345 >= 1
 c2:   x2 + x95 + x160 + x234 + x257 + x261 >= 1
 c3:   x4 + x34 + x71 + x75 + x93 + x132 + x209 + x273 + x299 + x346 >= 1
 c4:   x24 + x26 + x147 + x149 + x177 + x212 + x225 + x288 + x317 + x322 + x323
       + x344 >= 1
 c5:   x18 + x36 + x65 + x103 + x300 + x334 + x352 >= 1
 c6:   x5 + x10 >= 1
 c7:   x213 + x244 + x255 + x261 + x324 + x348 >= 1
 c8:   x141 + x150 + x264 + x273 + x312 + x319 + x336 + x344 >= 1
 c9:   x11 + x64 + x153 + x222 + x235 + x258 + x337 >= 1
 c10:  x17 + x20 + x25 + x140 + x165 + x184 + x287 >= 1
 c11:  x12 + x29 + x62 + x141 + x160 + x212 + x314 >= 1
 c12:  x5 + x136 + x182 + x233 >= 1
 c13:  x1 + x6 + x196 + x215 + x272 + x283 + x345 + x348 >= 1
 c14:  x90 + x100 + x145 + x154 + x227 + x246 + x248 + x289 + x290 + x316
       + x323 + x330 >= 1
 c15:  x50 + x81 + x134 + x137 + x164 + x181 + x209 + x279 + x281 + x307 + x319
       >= 1
 c16:  x29 + x30 + x40 + x57 + x112 + x148 + x151 + x191 + x251 + x295 + x299
       + x314 >= 1
 c17:  x17 + x95 + x164 + x170 + x174 + x219 + x223 >= 1
 c18:  x57 + x59 + x110 + x262 + x335 + x339 + x343 >= 1
 c19:  x6 + x29 + x35 + x66 + x258 + x260 + x332 >= 1
 c20:  x70 + x100 + x141 + x168 + x212 + x226 + x239 + x249 + x288 + x330
       + x347 >= 1
 c21:  x2 + x9 + x44 + x111 + x167 + x177 + x194 + x237 + x249 + x264 + x298
       + x311 >= 1
 c22:  x15 + x81 + x87 + x134 + x159 + x286 + x298 + x306 >= 1
 c23:  x7 + x57 + x82 + x96 + x170 + x242 >= 1
 c24:  x30 + x64 + x96 + x111 + x136 + x137 + x139 + x288 + x336 + x344 >= 1
 c25:  x7 + x24 + x79 + x239 + x283 + x322 >= 1
 c26:  x120 + x165 + x200 + x202 + x242 + x270 + x277 + x332 + x346 + x351 >= 1
 c27:  x90 + x240 + x255 + x319 + x326 + x345 >= 1
 c28:  x88 + x134 + x169 + x215 + x297 + x336 + x342 >= 1
 c29:  x32 + x130 + x140 + x158 + x160 + x214 + x239 + x244 + x257 + x258
       + x272 + x281 + x312 >= 1
 c30:  x46 + x77 + x122 + x139 + x188 + x228 + x231 + x260 + x341 + x348 + x349
       >= 1
 c31:  x23 + x82 + x88 + x129 + x180 + x192 + x259 + x310 + x315 + x322 >= 1
 c32:  x64 + x75 + x111 + x142 + x209 + x236 + x252 + x256 + x329 >= 1
 c33:  x5 + x179 + x193 + x228 + x330 >= 1
 c34:  x1 + x2 + x58 + x65 + x86 + x115 + x137 + x152 + x265 + x286 >= 1
 c35:  x7 + x40 + x55 + x76 + x96 + x215 + x283 + x292 + x331 >= 1
 c36:  x63 + x69 + x128 + x155 + x161 + x318 + x321 + x327 + x328 >= 1
 c37:  x144 + x163 + x167 + x169 + x200 + x205 + x218 + x222 + x241 + x246
       + x280 + x283 + x315 >= 1
 c38:  x12 + x84 + x115 + x178 + x245 + x332 + x342 >= 1
 c39:  x2 + x4 + x7 + x13 + x19 + x24 + x36 + x39 + x238 + x250 + x350 >= 1
 c40:  x104 + x304 + x306 >= 1
 c41:  x19 + x89 + x95 + x219 + x265 + x294 >= 1
 c42:  x108 + x113 + x168 + x219 + x264 + x334 + x339 + x351 >= 1
 c43:  x99 + x102 + x118 + x137 + x138 + x155 + x160 + x194 + x250 + x261
       + x301 + x314 + x350 >= 1
 c44:  x61 + x85 + x137 + x159 + x215 + x257 + x276 + x277 + x287 + x296 + x322
       + x345 >= 1
 c45:  x2 + x41 + x150 + x161 + x187 + x200 + x211 + x241 + x246 >= 1
 c46:  x18 + x81 + x82 + x84 + x123 + x236 + x259 + x343 >= 1
 c47:  x2 + x74 + x172 + x175 + x230 + x308 + x332 + x349 >= 1
 c48:  x14 + x44 + x129 + x238 + x248 >= 1
 c49:  x115 + x273 >= 1
 c50:  x63 + x107 + x119 + x208 + x220 + x306 + x313 + x329 >= 1
 c51:  x48 + x113 + x166 + x176 + x192 + x199 + x254 + x292 + x303 >= 1
 c52:  x13 + x28 + x79 + x146 + x195 + x242 + x288 + x346 >= 1
 c53:  x3 + x16 + x18 + x27 + x58 + x72 + x83 + x95 + x140 + x148 + x165 + x209
       + x236 + x243 + x326 >= 1
 c54:  x73 + x111 + x115 + x142 + x186 + x224 + x250 + x347 >= 1
 c55:  x32 + x61 + x87 + x154 + x172 + x245 + x249 + x257 + x281 + x303 + x319
       >= 1
 c56:  x5 + x51 + x64 + x176 + x274 + x322 + x332 >= 1
 c57:  x78 + x106 + x135 + x149 + x286 + x317 >= 1
 c58:  x26 + x28 + x51 + x116 + x151 + x203 + x232 + x235 + x264 + x328 >= 1
 c59:  x28 + x61 + x114 + x147 + x294 + x339 >= 1
 c60:  x49 + x54 + x144 + x207 + x211 + x212 + x223 + x229 + x263 + x301 + x331
       >= 1
 c61:  x31 + x58 + x227 + x228 + x317 + x335 + x336 + x339 + x343 >= 1
 c62:  x39 + x53 + x106 + x107 + x121 + x199 + x275 + x279 + x280 >= 1
 c63:  x190 + x262 + x312 + x341 >= 1
 c64:  x66 + x150 + x155 + x169 + x204 + x240 + x258 + x309 + x333 + x341
       + x348 >= 1
 c65:  x116 + x218 + x258 + x316 + x320 + x331 + x342 >= 1
 c66:  x45 + x46 + x72 + x92 + x109 + x118 + x141 + x175 + x178 + x224 + x227
       + x237 + x331 + x333 >= 1
 c67:  x49 + x70 + x166 + x241 + x248 >= 1
 c68:  x5 + x35 + x57 + x112 + x179 + x182 + x227 + x262 + x315 + x317 + x340
       + x347 >= 1
 c69:  x7 + x23 + x39 + x62 + x95 + x97 + x100 + x145 + x272 + x324 >= 1
 c70:  x1 + x66 + x259 + x279 >= 1
 c71:  x52 + x99 + x103 + x112 + x148 + x242 + x343 >= 1
 c72:  x20 + x87 + x97 + x145 + x150 + x177 + x189 + x207 + x215 + x238 + x313
       + x321 >= 1
 c73:  x1 + x6 + x57 + x74 + x204 + x265 + x284 >= 1
 c74:  x22 + x225 + x238 + x309 + x315 + x323 + x325 + x331 + x336 >= 1
 c75:  x57 + x60 + x239 + x253 + x296 + x313 >= 1
 c76:  x38 + x99 + x139 + x196 + x247 + x273 + x309 >= 1
 c77:  x7 + x34 + x60 + x78 + x117 + x272 + x281 + x295 + x327 + x340 >= 1
 c78:  x30 + x73 + x120 + x214 + x220 + x235 + x254 + x272 >= 1
 c79:  x44 + x60 + x72 + x79 + x142 + x171 + x173 + x175 + x179 + x300 + x314
       + x345 >= 1
 c80:  x3 + x67 + x74 + x113 + x119 + x137 + x259 + x279 + x313 >= 1
 c81:  x1 + x30 + x89 + x92 + x219 + x336 >= 1
 c82:  x1 + x4 + x8 + x24 + x157 + x237 + x238 + x280 + x286 >= 1
 c83:  x5 + x52 + x53 + x60 + x89 + x134 + x136 + x143 + x183 + x206 + x214
       + x232 + x273 + x348 >= 1
 c84:  x2 + x143 + x246 + x304 + x318 + x323 + x327 >= 1
 c85:  x11 + x98 + x130 + x167 + x190 + x249 + x293 + x295 + x348 >= 1
 c86:  x10 + x19 + x115 + x118 + x159 + x171 + x195 + x233 + x260 + x308 + x342
       >= 1
 c87:  x191 + x233 + x305 + x333 + x352 >= 1
 c88:  x1 + x124 + x164 + x254 + x258 + x274 + x314 >= 1
 c89:  x63 + x88 + x96 + x124 + x144 + x237 + x254 + x270 + x272 + x282 >= 1
 c90:  x126 + x185 + x258 + x339 >= 1
 c91:  x76 + x110 + x139 + x143 + x184 + x243 + x244 + x306 + x347 >= 1
 c92:  x101 + x112 + x166 + x216 + x268 + x313 >= 1
 c93:  x8 + x26 + x43 + x51 + x93 + x135 + x136 + x139 + x293 >= 1
 c94:  x4 + x12 + x115 + x144 + x148 + x168 + x221 >= 1
 c95:  x9 + x30 + x99 + x113 + x173 + x192 + x277 + x338 >= 1
 c96:  x87 + x100 + x157 + x162 + x216 + x220 + x256 + x261 + x272 + x275
       + x282 + x315 + x321 >= 1
 c97:  x50 + x62 + x82 + x84 + x160 + x179 + x196 + x201 + x220 + x243 + x275
       + x298 + x325 + x342 >= 1
 c98:  x31 + x72 + x129 + x137 + x158 + x212 + x252 + x256 + x259 >= 1
 c99:  x23 + x236 + x306 >= 1
 c100: x33 + x68 + x221 + x279 + x298 + x301 >= 1
 c101: x138 + x174 + x235 >= 1
 c102: x59 + x139 + x148 + x216 + x258 + x291 + x305 + x307 + x334 >= 1
 c103: x23 + x27 + x43 + x122 + x134 + x164 + x190 + x203 + x206 >= 1
 c104: x67 + x146 + x189 + x190 + x228 + x275 + x278 + x280 + x297 >= 1
 c105: x22 + x107 + x134 + x149 + x159 + x207 + x214 + x284 >= 1
 c106: x47 + x65 + x90 + x149 + x178 + x190 + x302 + x307 + x314 + x323 >= 1
 c107: x53 + x67 + x105 + x126 + x257 + x279 + x322 >= 1
 c108: x23 + x116 + x159 + x171 + x219 + x325 >= 1
 c109: x21 + x29 + x91 + x174 + x333 + x336 >= 1
 c110: x72 + x105 + x127 + x189 >= 1
 c111: x19 + x98 + x113 + x151 + x163 + x207 + x302 + x306 + x314 + x317 + x321
       + x322 >= 1
 c112: x76 + x136 + x181 + x196 + x235 + x260 + x281 + x282 + x283 + x287
       + x299 + x307 + x352 >= 1
 c113: x57 + x101 + x134 + x176 + x194 + x214 + x229 + x238 + x303 + x348 >= 1
 c114: x47 + x94 + x168 + x208 + x305 >= 1
 c115: x57 + x77 + x99 + x126 + x139 + x158 + x170 + x233 + x297 + x306 >= 1
 c116: x23 + x58 + x153 + x156 + x222 + x343 >= 1
 c117: x20 + x116 + x134 + x159 + x197 + x267 + x269 + x300 + x321 >= 1
 c118: x141 + x156 + x177 + x183 + x185 + x197 + x216 + x262 + x277 + x285
       + x291 + x324 + x340 + x349 >= 1
 c119: x88 + x97 + x173 >= 1
 c120: x25 + x37 + x45 + x68 + x175 + x192 + x208 + x213 + x289 + x337 >= 1
 c121: x61 + x101 + x148 + x187 + x303 + x309 + x342 >= 1
 c122: x77 + x87 + x104 + x167 + x203 + x243 + x275 + x345 >= 1
 c123: x102 + x220 + x290 + x338 + x340 + x341 + x352 >= 1
 c124: x163 + x244 + x328 + x337 >= 1
 c125: x94 + x178 + x208 + x219 + x223 + x253 >= 1
 c126: x12 + x71 + x162 + x182 + x279 + x334 + x339 >= 1
 c127: x3 + x180 + x210 + x252 + x271 + x313 + x347 >= 1
 c128: x9 + x33 + x42 + x111 + x138 + x147 + x153 + x196 + x235 + x333 + x340
       >= 1
 c129: x92 + x135 + x142 + x145 + x163 + x351 >= 1
 c130: x27 + x108 + x167 + x169 + x171 + x210 + x244 >= 1
 c131: x85 + x89 + x111 + x128 + x167 + x293 >= 1
 c132: x31 + x67 + x69 + x162 + x183 + x223 + x253 + x263 + x288 + x289 + x310
       >= 1
 c133: x17 + x25 + x27 + x33 + x40 + x190 + x213 + x215 + x274 + x315 >= 1
 c134: x30 + x136 + x197 + x218 + x251 + x323 + x340 >= 1
 c135: x50 + x143 + x208 + x242 + x279 + x284 + x292 + x302 + x313 >= 1
 c136: x60 + x74 + x88 + x236 + x307 + x326 >= 1
 c137: x41 + x80 + x98 + x178 + x242 + x256 + x270 + x283 + x285 + x330 >= 1
 c138: x105 + x162 + x237 + x254 + x265 >= 1
 c139: x4 + x25 + x36 + x113 + x123 + x316 + x334 >= 1
 c140: x29 + x32 + x51 + x58 + x61 + x70 + x73 + x112 + x191 + x206 + x208
       + x211 + x304 + x326 + x348 >= 1
 c141: x14 + x26 + x114 + x164 + x190 + x202 + x245 + x281 + x342 >= 1
 c142: x67 + x165 + x203 + x238 + x313 >= 1
 c143: x15 + x75 + x92 + x243 + x257 + x265 + x290 + x328 + x338 >= 1
 c144: x225 + x232 + x240 + x294 + x296 + x332 + x345 >= 1
 c145: x109 + x136 + x163 + x211 + x287 + x307 + x310 + x349 >= 1
 c146: x9 + x22 + x31 + x58 + x62 + x134 + x213 + x226 + x236 + x237 + x247
       + x258 + x285 >= 1
 c147: x34 + x138 + x170 + x193 + x198 + x212 + x227 >= 1
 c148: x48 + x64 + x89 + x134 + x231 + x292 + x297 + x310 + x329 >= 1
 c149: x1 + x2 + x26 + x65 + x90 + x91 >= 1
 c150: x23 + x59 + x96 + x111 + x213 + x240 + x266 + x279 >= 1
 c151: x42 + x94 + x143 + x166 + x184 + x259 + x300 >= 1
 c152: x12 + x14 + x41 + x73 + x76 + x217 + x305 >= 1
 c153: x66 + x132 + x308 + x346 >= 1
 c154: x28 + x87 + x120 + x161 + x178 + x189 + x195 + x279 + x297 + x308 >= 1
 c155: x46 + x112 + x120 + x135 + x198 + x207 + x299 + x313 >= 1
 c156: x39 + x68 + x71 + x124 + x142 + x145 + x172 + x191 + x205 + x351 >= 1
 c157: x25 + x29 + x43 + x49 + x62 + x156 + x165 + x240 + x255 + x263 + x298
       + x303 + x328 + x338 >= 1
 c158: x1 + x57 + x191 + x210 + x219 + x258 + x268 + x307 >= 1
 c159: x8 + x24 + x61 + x122 + x259 + x339 >= 1
 c160: x32 + x93 + x154 + x163 + x289 + x308 + x317 + x332 >= 1
 c161: x26 + x55 + x169 + x184 + x201 + x207 + x213 + x283 + x298 + x349 >= 1
 c162: x14 + x15 + x33 + x62 + x137 + x148 + x172 + x194 + x267 + x277 + x282
       + x284 + x290 + x352 >= 1
 c163: x9 + x58 + x257 + x276 + x283 + x333 >= 1
 c164: x28 + x260 >= 1
 c165: x117 + x135 + x165 + x209 + x238 + x324 >= 1
 c166: x115 + x222 + x229 + x234 + x265 + x338 >= 1
 c167: x77 + x97 + x142 + x175 + x182 + x227 + x257 + x274 >= 1
 c168: x40 + x45 + x47 + x121 + x163 + x230 + x263 + x267 + x271 + x276 + x282
       + x283 + x306 + x308 >= 1
 c169: x4 + x72 + x156 + x193 + x251 + x267 + x302 + x314 + x332 >= 1
 c170: x14 + x23 + x58 + x114 + x121 + x224 + x238 + x280 + x285 >= 1
 c171: x10 + x16 + x60 + x63 + x94 + x136 + x145 + x185 + x209 + x263 >= 1
 c172: x1 + x27 + x144 + x208 + x264 + x279 + x282 + x335 >= 1
 c173: x8 + x16 + x57 + x154 + x251 + x266 + x279 + x296 + x297 >= 1
 c174: x15 + x45 + x78 + x134 + x159 + x260 + x277 + x301 + x305 >= 1
 c175: x127 + x170 + x203 + x218 + x311 + x323 + x344 >= 1
 c176: x150 + x177 + x191 + x199 + x231 + x261 + x288 + x303 + x311 + x327 >= 1
 c177: x10 + x16 + x180 + x217 + x348 + x351 >= 1
 c178: x93 + x121 + x132 + x136 + x144 + x186 + x221 + x309 + x332 + x340 >= 1
 c179: x36 + x91 + x93 + x102 + x114 + x135 + x201 + x236 + x266 + x299 + x326
       + x333 >= 1
 c180: x102 + x216 + x217 + x236 + x247 + x278 + x291 + x313 + x333 >= 1
 c181: x37 + x60 + x221 + x275 + x300 >= 1
 c182: x26 + x37 + x68 + x150 + x174 + x175 + x249 + x308 >= 1
 c183: x61 + x66 + x70 + x91 + x112 + x210 + x236 + x242 + x274 + x316 + x331
       >= 1
 c184: x38 + x50 + x70 + x121 + x138 + x197 + x239 + x282 + x321 + x352 >= 1
 c185: x13 + x48 + x138 + x160 + x251 + x264 + x275 + x316 >= 1
 c186: x25 + x44 + x65 + x68 + x94 + x131 + x197 + x281 + x299 >= 1
 c187: x1 + x134 + x135 + x141 + x195 + x239 + x269 + x289 + x292 + x307 + x331
       + x347 >= 1
 c188: x111 + x153 + x174 + x179 + x262 + x267 + x268 + x273 + x300 + x307
       + x319 >= 1
 c189: x32 + x80 + x128 + x210 + x241 + x311 >= 1
 c190: x34 + x35 + x40 + x89 + x146 + x217 + x262 + x302 >= 1
 c191: x23 + x36 + x60 + x163 + x166 + x221 + x273 + x276 + x300 >= 1
 c192: x28 + x103 + x126 + x139 + x157 + x192 >= 1
 c193: x8 + x139 + x217 + x276 + x280 + x308 >= 1
 c194: x6 + x24 + x27 + x63 + x145 + x155 + x162 + x207 + x213 + x231 + x243
       + x270 + x301 + x322 >= 1
 c195: x33 + x247 + x287 + x324 >= 1
 c196: x56 + x59 + x74 + x209 + x237 + x246 + x289 + x298 + x329 + x350 >= 1
 c197: x9 + x95 + x114 + x117 + x160 + x212 + x284 + x338 >= 1
 c198: x86 + x111 + x125 + x145 + x324 >= 1
 c199: x90 + x180 + x190 + x239 + x347 >= 1
 c200: x59 + x138 + x186 + x207 + x214 + x224 + x261 + x295 + x299 + x301
       + x311 >= 1
 c201: x64 + x98 + x157 + x168 + x195 + x210 + x258 + x261 + x266 + x318 + x335
       >= 1
 c202: x33 + x190 + x306 + x321 + x337 >= 1
 c203: x27 + x41 + x47 + x92 + x198 + x210 + x213 + x240 + x334 >= 1
 c204: x30 + x47 + x69 + x88 + x181 + x274 + x289 >= 1
 c205: x3 + x49 + x343 >= 1
 c206: x90 + x230 + x243 + x310 + x337 + x339 + x351 >= 1
 c207: x59 + x88 + x144 + x182 + x213 + x239 + x247 + x253 + x309 + x328 >= 1
 c208: x80 + x114 + x117 + x153 + x193 + x196 + x208 + x248 + x324 + x329 >= 1
 c209: x74 + x173 + x192 + x195 + x204 + x274 + x281 + x315 + x318 + x334 >= 1
 c210: x1 + x10 + x92 + x125 + x136 + x161 + x162 + x165 + x172 + x191 + x223
       + x290 + x297 >= 1
 c211: x7 + x9 + x35 + x38 + x76 + x172 + x226 + x241 + x250 + x305 >= 1
 c212: x100 + x103 + x123 + x131 + x193 + x252 + x282 + x311 + x325 >= 1
 c213: x2 + x122 + x160 + x169 >= 1
 c214: x71 + x188 + x191 + x257 + x327 >= 1
 c215: x43 + x134 + x140 + x147 + x151 + x164 + x191 + x226 + x245 + x341 >= 1
 c216: x32 + x59 + x76 + x159 + x236 + x259 >= 1
 c217: x16 + x24 + x173 + x215 >= 1
 c218: x78 + x113 + x146 + x202 + x212 + x300 + x322 + x326 + x345 >= 1
 c219: x35 + x71 + x89 + x102 + x130 + x211 + x286 + x321 >= 1
 c220: x24 + x25 + x52 + x65 + x108 + x141 + x197 + x246 + x325 + x331 + x340
       >= 1
 c221: x83 + x97 + x116 + x117 + x199 + x246 + x271 + x272 + x279 + x286 >= 1
 c222: x96 + x97 + x98 + x135 + x169 + x171 + x200 + x228 + x237 + x270 + x297
       + x314 + x328 + x334 + x337 + x349 >= 1
 c223: x14 + x190 + x262 + x323 + x349 >= 1
 c224: x11 + x58 + x90 + x120 + x222 + x225 >= 1
 c225: x62 + x147 + x201 + x202 + x298 + x308 + x321 + x335 + x339 >= 1
 c226: x3 + x67 + x71 + x114 + x160 + x194 + x226 >= 1
 c227: x80 + x119 + x138 + x146 + x287 + x318 + x325 >= 1
 c228: x49 + x101 + x159 + x190 + x197 + x220 + x299 + x339 >= 1
 c229: x52 + x66 + x122 >= 1
 c230: x13 + x80 + x90 >= 1
 c231: x94 + x135 + x183 + x198 + x313 + x335 >= 1
 c232: x3 + x24 + x207 + x217 + x224 >= 1
 c233: x39 + x50 + x88 + x207 + x255 + x335 >= 1
 c234: x123 + x128 + x160 + x166 + x228 + x235 + x241 + x271 + x301 + x327
       + x343 + x344 + x351 >= 1
 c235: x6 + x27 + x93 + x241 + x319 + x337 >= 1
 c236: x4 + x30 + x79 + x149 + x171 + x180 + x248 + x305 + x313 + x345 >= 1
 c237: x68 + x78 + x89 + x107 + x152 >= 1
 c238: x25 + x149 + x204 + x245 + x262 + x286 + x298 + x302 >= 1
 c239: x13 + x39 + x106 + x214 + x235 + x237 + x266 >= 1
 c240: x77 + x103 + x125 + x229 + x301 + x313 >= 1
 c241: x91 + x92 + x118 + x206 + x211 + x235 + x266 + x321 + x346 >= 1
 c242: x34 + x37 + x161 + x218 + x261 + x280 + x293 + x299 + x310 + x321 >= 1
 c243: x35 + x38 + x161 + x185 + x259 + x293 + x318 + x348 >= 1
 c244: x65 + x147 + x181 + x194 + x347 >= 1
 c245: x42 + x44 + x151 + x207 + x257 + x265 + x302 + x307 + x342 >= 1
 c246: x24 + x31 + x235 + x280 + x301 + x304 + x340 >= 1
 c247: x69 + x91 + x93 + x211 + x268 + x269 + x304 + x338 + x345 >= 1
 c248: x40 + x143 + x210 + x272 + x315 + x351 >= 1
 c249: x3 + x46 + x60 + x75 + x140 + x154 + x299 + x309 + x326 + x330 >= 1
 c250: x69 + x146 + x173 + x338 >= 1
 c251: x42 + x114 + x201 + x314 >= 1
 c252: x63 + x78 + x87 + x123 + x159 + x208 + x216 + x250 + x267 + x282 + x350
       >= 1
 c253: x87 + x113 + x185 + x217 + x224 + x343 >= 1
 c254: x26 + x61 + x198 + x210 + x325 + x342 >= 1
 c255: x5 + x11 + x87 + x127 + x216 + x218 + x244 + x247 + x272 + x285 + x287
       + x316 + x327 >= 1
 c256: x142 + x147 + x187 + x290 + x305 >= 1
 c257: x5 + x11 + x266 + x325 + x332 >= 1
 c258: x32 + x48 + x144 + x218 + x279 + x291 >= 1
 c259: x87 + x127 + x181 + x188 + x273 + x276 + x326 + x331 + x337 + x338 >= 1
 c260: x23 + x41 + x45 + x137 + x161 + x225 + x245 + x342 >= 1
 c261: x25 + x61 + x119 + x166 + x350 >= 1
 c262: x91 + x117 + x125 + x135 + x161 + x162 + x173 + x215 + x230 + x271
       + x302 + x313 + x344 >= 1
 c263: x2 + x104 + x116 + x193 + x332 >= 1
 c264: x18 + x89 + x140 + x152 + x214 + x274 + x315 + x321 + x323 >= 1
 c265: x27 + x184 + x193 + x231 + x242 + x305 + x343 >= 1
 c266: x116 + x176 + x188 + x207 + x222 + x291 + x318 + x321 + x348 >= 1
 c267: x2 + x8 + x11 + x36 + x68 + x111 + x112 + x133 + x191 + x193 + x261
       + x269 + x284 + x323 + x324 >= 1
 c268: x64 + x124 + x186 + x211 + x264 + x280 + x348 >= 1
 c269: x6 + x104 + x111 + x167 + x209 >= 1
 c270: x31 + x165 + x183 + x200 + x273 + x286 >= 1
 c271: x38 + x73 + x130 + x285 + x298 + x351 >= 1
 c272: x12 + x90 + x105 + x112 + x168 + x171 + x260 + x280 + x306 + x333 >= 1
 c273: x28 + x59 + x88 + x134 + x174 + x285 >= 1
 c274: x37 + x83 + x94 + x106 + x212 + x252 + x305 + x329 >= 1
 c275: x15 + x73 + x75 + x87 + x138 + x239 + x296 + x346 >= 1
 c276: x53 + x140 + x151 + x198 + x273 + x294 + x327 >= 1
 c277: x28 + x38 + x54 + x63 + x66 + x172 + x208 + x210 + x249 + x321 >= 1
 c278: x288 + x292 + x295 + x320 + x350 + x352 >= 1
 c279: x26 + x37 + x63 + x209 + x316 + x340 + x342 >= 1
 c280: x59 + x155 + x174 + x196 + x259 + x331 >= 1
 c281: x134 + x143 + x169 + x170 + x205 + x226 + x248 + x269 + x329 + x343 >= 1
 c282: x81 + x88 + x142 + x160 + x194 + x216 + x245 + x328 + x331 + x333 + x350
       >= 1
 c283: x69 + x168 + x175 + x186 + x316 >= 1
 c284: x133 + x187 + x317 + x349 >= 1
 c285: x6 + x159 + x199 + x250 + x253 + x263 + x317 >= 1
 c286: x17 + x29 + x42 + x77 + x143 + x164 + x205 + x284 + x338 + x348 >= 1
 c287: x3 + x8 + x67 + x152 + x240 + x260 + x278 + x285 + x333 + x341 >= 1
 c288: x20 + x21 + x43 + x177 + x198 + x199 >= 1
 c289: x135 + x179 + x195 + x278 + x330 + x336 + x346 >= 1
 c290: x31 + x305 + x324 + x346 >= 1
 c291: x64 + x112 + x202 + x291 + x309 + x313 >= 1
 c292: x41 + x159 + x161 + x162 + x221 + x263 + x300 + x322 + x323 >= 1
 c293: x152 + x164 + x223 + x251 + x268 + x284 + x294 + x324 + x330 + x347
       + x352 >= 1
 c294: x34 + x92 + x113 + x134 + x190 + x191 + x192 + x209 + x240 + x241 + x338
       + x342 >= 1
 c295: x4 + x118 + x167 + x168 + x290 + x297 + x335 >= 1
 c296: x13 + x48 + x91 + x131 + x140 + x200 + x211 + x230 >= 1
 c297: x29 + x46 + x70 + x113 + x141 + x160 + x176 + x208 + x229 + x244 + x263
       + x269 + x297 + x325 >= 1
 c298: x79 + x146 + x170 + x176 + x268 + x310 + x322 >= 1
 c299: x10 + x21 + x232 + x259 + x260 + x281 + x309 >= 1
 c300: x119 + x129 + x166 + x201 + x204 + x220 + x234 + x257 + x272 + x293
       + x304 >= 1
Bounds
 0 <= x1 <= 1
 0 <= x2 <= 1
 0 <= x3 <= 1
 0 <= x4 <= 1
 0 <= x5 <= 1
 0 <= x6 <= 1
 0 <= x7 <= 1
 0 <= x8 <= 1
 0 <= x9 <= 1
 0 <= x10 <= 1
 0 <= x11 <= 1
 0 <= x12 <= 1
 0 <= x13 <= 1
 0 <= x14 <= 1
 0 <= x15 <= 1
 0 <= x16 <= 1
 0 <= x17 <= 1
 0 <= x18 <= 1
 0 <= x19 <= 1
 0 <= x20 <= 1
 0 <= x21 <= 1
 0 <= x22 <= 1
 0 <= x23 <= 1
 0 <= x24 <= 1
 0 <= x25 <= 1
 0 <= x26 <= 1
 0 <= x27 <= 1
 0 <= x28 <= 1
 0 <= x29 <= 1
 0 <= x30 <= 1
 0 <= x31 <= 1
 0 <= x32 <= 1
 0 <= x33 <= 1
 0 <= x34 <= 1
 0 <= x35 <= 1
 0 <= x36 <= 1
 0 <= x37 <= 1
 0 <= x38 <= 1
 0 <= x39 <= 1
 0 <= x40 <= 1
 0 <= x41 <= 1
 0 <= x42 <= 1
 0 <= x43 <= 1
 0 <= x44 <= 1
 0 <= x45 <= 1
 0 <= x46 <= 1
 0 <= x47 <= 1
 0 <= x48 <= 1
 0 <= x49 <= 1
 0 <= x50 <= 1
 0 <= x51 <= 1
 0 <= x52 <= 1
 0 <= x53 <= 1
 0 <= x54 <= 1
 0 <= x55 <= 1
 0 <= x56 <= 1
 0 <= x57 <= 1
 0 <= x58 <= 1
 0 <= x59 <= 1
 0 <= x60 <= 1
 0 <= x61 <= 1
 0 <= x62 <= 1
 0 <= x63 <= 1
 0 <= x64 <= 1
 0 <= x65 <= 1
 0 <= x66 <= 1
 0 <= x67 <= 1
 0 <= x68 <= 1
 0 <= x69 <= 1
 0 <= x70 <= 1
 0 <= x71 <= 1
 0 <= x72 <= 1
 0 <= x73 <= 1
 0 <= x74 <= 1
 0 <= x75 <= 1
 0 <= x76 <= 1
 0 <= x77 <= 1
 0 <= x78 <= 1
 0 <= x79 <= 1
 0 <= x80 <= 1
 0 <= x81 <= 1
 0 <= x82 <= 1
 0 <= x83 <= 1
 0 <= x84 <= 1
 0 <= x85 <= 1
 0 <= x86 <= 1
 0 <= x87 <= 1
 0 <= x88 <= 1
 0 <= x89 <= 1
 0 <= x90 <= 1
 0 <= x91 <= 1
 0 <= x92 <= 1
 0 <= x93 <= 1
 0 <= x94 <= 1
 0 <= x95 <= 1
 0 <= x96 <= 1
 0 <= x97 <= 1
 0 <= x98 <= 1
 0 <= x99 <= 1
 0 <= x100 <= 1
 0 <= x101 <= 1
 0 <= x102 <= 1
 0 <= x103 <= 1
 0 <= x104 <= 1
 0 <= x105 <= 1
 0 <= x106 <= 1
 0 <= x107 <= 1
 0 <= x108 <= 1
 0 <= x109 <= 1
 0 <= x110 <= 1
 0 <= x111 <= 1
 0 <= x112 <= 1
 0 <= x113 <= 1
 0 <= x114 <= 1
 0 <= x115 <= 1
 0 <= x116 <= 1
 0 <= x117 <= 1
 0 <= x118 <= 1
 0 <= x119 <= 1
 0 <= x120 <= 1
 0 <= x121 <= 1
 0 <= x122 <= 1
 0 <= x123 <= 1
 0 <= x124 <= 1
 0 <= x125 <= 1
 0 <= x126 <= 1
 0 <= x127 <= 1
 0 <= x128 <= 1
 0 <= x129 <= 1
 0 <= x130 <= 1
 0 <= x131 <= 1
 0 <= x132 <= 1
 0 <= x133 <= 1
 0 <= x134 <= 1
 0 <= x135 <= 1
 0 <= x136 <= 1
 0 <= x137 <= 1
 0 <= x138 <= 1
 0 <= x139 <= 1
 0 <= x140 <= 1
 0 <= x141 <= 1
 0 <= x142 <= 1
 0 <= x143 <= 1
 0 <= x144 <= 1
 0 <= x145 <= 1
 0 <= x146 <= 1
 0 <= x147 <= 1
 0 <= x148 <= 1
 0 <= x149 <= 1
 0 <= x150 <= 1
 0 <= x151 <= 1
 0 <= x152 <= 1
 0 <= x153 <= 1
 0 <= x154 <= 1
 0 <= x155 <= 1
 0 <= x156 <= 1
 0 <= x157 <= 1
 0 <= x158 <= 1
 0 <= x159 <= 1
 0 <= x160 <= 1
 0 <= x161 <= 1
 0 <= x162 <= 1
 0 <= x163 <= 1
 0 <= x164 <= 1
 0 <= x165 <= 1
 0 <= x166 <= 1
 0 <= x167 <= 1
 0 <= x168 <= 1
 0 <= x169 <= 1
 0 <= x170 <= 1
 0 <= x171 <= 1
 0 <= x172 <= 1
 0 <= x173 <= 1
 0 <= x174 <= 1
 0 <= x175 <= 1
 0 <= x176 <= 1
 0 <= x177 <= 1
 0 <= x178 <= 1
 0 <= x179 <= 1
 0 <= x180 <= 1
 0 <= x181 <= 1
 0 <= x182 <= 1
 0 <= x183 <= 1
 0 <= x184 <= 1
 0 <= x185 <= 1
 0 <= x186 <= 1
 0 <= x187 <= 1
 0 <= x188 <= 1
 0 <= x189 <= 1
 0 <= x190 <= 1
 0 <= x191 <= 1
 0 <= x192 <= 1
 0 <= x193 <= 1
 0 <= x194 <= 1
 0 <= x195 <= 1
 0 <= x196 <= 1
 0 <= x197 <= 1
 0 <= x198 <= 1
 0 <= x199 <= 1
 0 <= x200 <= 1
 0 <= x201 <= 1
 0 <= x202 <= 1
 0 <= x203 <= 1
 0 <= x204 <= 1
 0 <= x205 <= 1
 0 <= x206 <= 1
 0 <= x207 <= 1
 0 <= x208 <= 1
 0 <= x209 <= 1
 0 <= x210 <= 1
 0 <= x211 <= 1
 0 <= x212 <= 1
 0 <= x213 <= 1
 0 <= x214 <= 1
 0 <= x215 <= 1
 0 <= x216 <= 1
 0 <= x217 <= 1
 0 <= x218 <= 1
 0 <= x219 <= 1
 0 <= x220 <= 1
 0 <= x221 <= 1
 0 <= x222 <= 1
 0 <= x223 <= 1
 0 <= x224 <= 1
 0 <= x225 <= 1
 0 <= x226 <= 1
 0 <= x227 <= 1
 0 <= x228 <= 1
 0 <= x229 <= 1
 0 <= x230 <= 1
 0 <= x231 <= 1
 0 <= x232 <= 1
 0 <= x233 <= 1
 0 <= x234 <= 1
 0 <= x235 <= 1
 0 <= x236 <= 1
 0 <= x237 <= 1
 0 <= x238 <= 1
 0 <= x239 <= 1
 0 <= x240 <= 1
 0 <= x241 <= 1
 0 <= x242 <= 1
 0 <= x243 <= 1
 0 <= x244 <= 1
 0 <= x245 <= 1
 0 <= x246 <= 1
 0 <= x247 <= 1
 0 <= x248 <= 1
 0 <= x249 <= 1
 0 <= x250 <= 1
 0 <= x251 <= 1
 0 <= x252 <= 1
 0 <= x253 <= 1
 0 <= x254 <= 1
 0 <= x255 <= 1
 0 <= x256 <= 1
 0 <= x257 <= 1
 0 <= x258 <= 1
 0 <= x259 <= 1
 0 <= x260 <= 1
 0 <= x261 <= 1
 0 <= x262 <= 1
 0 <= x263 <= 1
 0 <= x264 <= 1
 0 <= x265 <= 1
 0 <= x266 <= 1
 0 <= x267 <= 1
 0 <= x268 <= 1
 0 <= x269 <= 1
 0 <= x270 <= 1
 0 <= x271 <= 1
 0 <= x272 <= 1
 0 <= x273 <= 1
 0 <= x274 <= 1
 0 <= x275 <= 1
 0 <= x276 <= 1
 0 <= x277 <= 1
 0 <= x278 <= 1
 0 <= x279 <= 1
 0 <= x280 <= 1
 0 <= x281 <= 1
 0 <= x282 <= 1
 0 <= x283 <= 1
 0 <= x284 <= 1
 0 <= x285 <= 1
 0 <= x286 <= 1
 0 <= x287 <= 1
 0 <= x288 <= 1
 0 <= x289 <= 1
 0 <= x290 <= 1
 0 <= x291 <= 1
 0 <= x292 <= 1
 0 <= x293 <= 1
 0 <= x294 <= 1
 0 <= x295 <= 1
 0 <= x296 <= 1
 0 <= x297 <= 1
 0 <= x298 <= 1
 0 <= x299 <= 1
 0 <= x300 <= 1
 0 <= x301 <= 1
 0 <= x302 <= 1
 0 <= x303 <= 1
 0 <= x304 <= 1
 0 <= x305 <= 1
 0 <= x306 <= 1
 0 <= x307 <= 1
 0 <= x308 <= 1
 0 <= x309 <= 1
 0 <= x310 <= 1
 0 <= x311 <= 1
 0 <= x312 <= 1
 0 <= x313 <= 1
 0 <= x314 <= 1
 0 <= x315 <= 1
 0 <= x316 <= 1
 0 <= x317 <= 1
 0 <= x318 <= 1
 0 <= x319 <= 1
 0 <= x320 <= 1
 0 <= x321 <= 1
 0 <= x322 <= 1
 0 <= x323 <= 1
 0 <= x324 <= 1
 0 <= x325 <= 1
 0 <= x326 <= 1
 0 <= x327 <= 1
 0 <= x328 <= 1
 0 <= x329 <= 1
 0 <= x330 <= 1
 0 <= x331 <= 1
 0 <= x332 <= 1
 0 <= x333 <= 1
 0 <= x334 <= 1
 0 <= x335 <= 1
 0 <= x336 <= 1
 0 <= x337 <= 1
 0 <= x338 <= 1
 0 <= x339 <= 1
 0 <= x340 <= 1
 0 <= x341 <= 1
 0 <= x342 <= 1
 0 <= x343 <= 1
 0 <= x344 <= 1
 0 <= x345 <= 1
 0 <= x346 <= 1
 0 <= x347 <= 1
 0 <= x348 <= 1
 0 <= x349 <= 1
 0 <= x350 <= 1
 0 <= x351 <= 1
 0 <= x352 <= 1
Binaries
 x1  x2  x3  x4  x5  x6  x7  x8  x9  x10  x11  x12  x13  x14  x15  x16  x17 
 x18  x19  x20  x21  x22  x23  x24  x25  x26  x27  x28  x29  x30  x31  x32 
 x33  x34  x35  x36  x37  x38  x39  x40  x41  x42  x43  x44  x45  x46  x47 
 x48  x49  x50  x51  x52  x53  x54  x55  x56  x57  x58  x59  x60  x61  x62 
 x63  x64  x65  x66  x67  x68  x69  x70  x71  x72  x73  x74  x75  x76  x77 
 x78  x79  x80  x81  x82  x83  x84  x85  x86  x87  x88  x89  x90  x91  x92 
 x93  x94  x95  x96  x97  x98  x99  x100  x101  x102  x103  x104  x105  x106 
 x107  x108  x109  x110  x111  x112  x113  x114  x115  x116  x117  x118  x119 
 x120  x121  x122  x123  x124  x125  x126  x127  x128  x129  x130  x131  x132 
 x133  x134  x135  x136  x137  x138  x139  x140  x141  x142  x143  x144  x145 
 x146  x147  x148  x149  x150  x151  x152  x153  x154  x155  x156  x157  x158 
 x159  x160  x161  x162  x163  x164  x165  x166  x167  x168  x169  x170  x171 
 x172  x173  x174  x175  x176  x177  x178  x179  x180  x181  x182  x183  x184 
 x185  x186  x187  x188  x189  x190  x191  x192  x193  x194  x195  x196  x197 
 x198  x199  x200  x201  x202  x203  x204  x205  x206  x207  x208  x209  x210 
 x211  x212  x213  x214  x215  x216  x217  x218  x219  x220  x221  x222  x223 
 x224  x225  x226  x227  x228  x229  x230  x231  x232  x233  x234  x235  x236 
 x237  x238  x239  x240  x241  x242  x243  x244  x245  x246  x247  x248  x249 
 x250  x251  x252  x253  x254  x255  x256  x257  x258  x259  x260  x261  x262 
 x263  x264  x265  x266  x267  x268  x269  x270  x271  x272  x273  x274  x275 
 x276  x277  x278  x279  x280  x281  x282  x283  x284  x285  x286  x287  x288 
 x289  x290  x291  x292  x293  x294  x295  x296  x297  x298  x299  x300  x301 
 x302  x303  x304  x305  x306  x307  x308  x309  x310  x311  x312  x313  x314 
 x315  x316  x317  x318  x319  x320  x321  x322  x323  x324  x325  x326  x327 
 x328  x329  x330  x331  x332  x333  x334  x335  x336  x337  x338  x339  x340 
 x341  x342  x343  x344  x345  x346  x347  x348  x349  x350  x351  x352 
End
